
   AbsCon 1.41 (January, 2014) - defaultConfiguration

   
   instance
        framework=CSP  name=Isomorphism-/cluster/gpg/ciaran/sip-benchmarks/benchmarks/images-CVIU11/patterns/pattern29-/cluster/gpg/ciaran/sip-benchmarks/benchmarks/images-CVIU11/targets/target75
        parameters=/cluster/gpg/ciaran/sip-benchmarks/benchmarks/images-CVIU11/patterns/pattern29,/cluster/gpg/ciaran/sip-benchmarks/benchmarks/images-CVIU11/targets/target75
      

   loading variables...
        nbVariables=22  nbDomainTypes=1  nbTotalValues=121616  domainSizes=(5528:22)
          =>  wckTime=0.484  cpuTime=0.432  mem=252M342

   loading objectives...

   loading constraints...
        nbConstraints=32  nbSpecificConstraints=1  nbExtensionStructures=(1,shared:30)  nbConflictsStructures=(1,shared:30,unbuilt:1)
        degrees=(3:4)(4:18)  arities=(2:31)(22:1)  types=(AllDifferent:1)(ConstraintHardExtensionV-Bits:31)
          =>  wckTime=0.768  cpuTime=0.71  mem=273M571

   INFO : <!-- Start saving the XML representation -->

   INFO : <!-- Stop saving the XML representation of target75.xml -->

   Solver SolverBacktrack being built... 

   INFO : Stop creating residues for RevisionManagerBitRm
          =>  wckTime=6.389  cpuTime=5.957  mem=761M727

   
   search
        run=0  nbConstraintChecks=0  depth=(min:0,max:0,avg:1)  nbEffectivePropagations=35856  nbRevisions=100806  nbUselessRevisions=64969
        nbAssignments=5384  nbFailedAssignments=5384  nbBacktracks=1  nbVisitedNodes=10769  nbRestartNogoods=0
          =>  wckTime=2682.832  cpuTime=2648.937  mem=4259M501

   
   global
        nbConstraintChecks=0  nbEffectivePropagations=35856  nbRevisions=100806  nbUselessRevisions=64969  nbRestartNogoods=0
        solvingWckTime=2682.833  expiredTime=no  totalExploration=yes  nbFoundSolutions=0  Stop=FULL_EXPLORATION
          =>  wckTime=2689.222  cpuTime=2648.938  mem=4259M501

s UNSATISFIABLE
d NODES 5384

   totalWckTime=2689.06  totalCpuTime=2648.939
